c Created with the Wolfram Language : www.wolfram.com
c 
p edge 60 350
e 3 5
e 2 6
e 5 6
e 2 7
e 4 8
e 6 8
e 4 9
e 8 9
e 2 10
e 4 10
e 6 10
e 4 11
e 7 11
e 5 12
e 7 12
e 8 12
e 4 13
e 6 13
e 3 14
e 5 14
e 7 14
e 8 14
e 1 15
e 9 15
e 12 15
e 6 16
e 10 16
e 11 16
e 2 17
e 9 17
e 2 18
e 4 18
e 12 18
e 13 18
e 15 18
e 1 19
e 3 19
e 5 19
e 11 19
e 18 19
e 2 20
e 5 20
e 11 20
e 12 20
e 13 20
e 17 20
e 4 21
e 7 21
e 11 21
e 12 21
e 15 21
e 18 21
e 20 21
e 19 22
e 21 22
e 6 23
e 7 23
e 12 23
e 18 23
e 20 23
e 21 23
e 2 24
e 12 24
e 13 24
e 22 24
e 23 24
e 5 25
e 10 25
e 18 25
e 20 25
e 6 26
e 10 26
e 12 26
e 13 26
e 15 26
e 17 26
e 19 26
e 13 27
e 16 27
e 17 27
e 19 27
e 25 27
e 1 28
e 12 28
e 17 28
e 24 28
e 27 28
e 8 29
e 15 29
e 18 29
e 26 29
e 2 30
e 17 30
e 18 30
e 25 30
e 5 31
e 6 31
e 12 31
e 20 31
e 1 32
e 2 32
e 25 32
e 7 33
e 8 33
e 11 33
e 12 33
e 16 33
e 26 33
e 28 33
e 12 34
e 15 34
e 25 34
e 29 34
e 1 35
e 9 35
e 17 35
e 22 35
e 24 35
e 26 35
e 29 35
e 6 36
e 7 36
e 11 36
e 34 36
e 1 37
e 7 37
e 14 37
e 19 37
e 28 37
e 3 38
e 7 38
e 8 38
e 10 38
e 20 38
e 27 38
e 33 38
e 8 39
e 11 39
e 13 39
e 14 39
e 19 39
e 21 39
e 27 39
e 33 39
e 2 40
e 10 40
e 13 40
e 23 40
e 25 40
e 27 40
e 3 41
e 11 41
e 13 41
e 15 41
e 17 41
e 33 41
e 10 42
e 11 42
e 16 42
e 28 42
e 31 42
e 33 42
e 36 42
e 2 43
e 4 43
e 7 43
e 8 43
e 11 43
e 23 43
e 30 43
e 34 43
e 35 43
e 40 43
e 4 44
e 6 44
e 7 44
e 10 44
e 19 44
e 21 44
e 31 44
e 38 44
e 2 45
e 4 45
e 12 45
e 16 45
e 17 45
e 21 45
e 33 45
e 39 45
e 4 46
e 6 46
e 8 46
e 24 46
e 28 46
e 30 46
e 33 46
e 36 46
e 44 46
e 45 46
e 5 47
e 18 47
e 19 47
e 20 47
e 26 47
e 32 47
e 33 47
e 35 47
e 41 47
e 43 47
e 44 47
e 2 48
e 5 48
e 7 48
e 9 48
e 10 48
e 11 48
e 13 48
e 14 48
e 15 48
e 16 48
e 19 48
e 21 48
e 34 48
e 41 48
e 45 48
e 47 48
e 2 49
e 9 49
e 10 49
e 11 49
e 15 49
e 18 49
e 26 49
e 31 49
e 32 49
e 36 49
e 39 49
e 47 49
e 48 49
e 3 50
e 7 50
e 10 50
e 13 50
e 19 50
e 23 50
e 28 50
e 34 50
e 46 50
e 4 51
e 9 51
e 11 51
e 14 51
e 19 51
e 21 51
e 22 51
e 25 51
e 5 52
e 12 52
e 14 52
e 21 52
e 33 52
e 37 52
e 39 52
e 41 52
e 43 52
e 49 52
e 3 53
e 5 53
e 12 53
e 16 53
e 21 53
e 25 53
e 30 53
e 33 53
e 34 53
e 36 53
e 39 53
e 41 53
e 46 53
e 51 53
e 52 53
e 4 54
e 10 54
e 13 54
e 15 54
e 28 54
e 29 54
e 33 54
e 35 54
e 43 54
e 5 55
e 10 55
e 20 55
e 30 55
e 31 55
e 34 55
e 41 55
e 42 55
e 49 55
e 52 55
e 53 55
e 7 56
e 13 56
e 19 56
e 20 56
e 38 56
e 48 56
e 53 56
e 55 56
e 1 57
e 13 57
e 16 57
e 21 57
e 22 57
e 24 57
e 34 57
e 35 57
e 47 57
e 53 57
e 8 58
e 18 58
e 24 58
e 25 58
e 26 58
e 33 58
e 34 58
e 42 58
e 43 58
e 56 58
e 3 59
e 18 59
e 19 59
e 27 59
e 30 59
e 33 59
e 37 59
e 46 59
e 1 60
e 4 60
e 15 60
e 18 60
e 19 60
e 22 60
e 25 60
e 27 60
e 30 60
e 31 60
e 42 60
e 56 60
e 57 60
